!  hf aug-cc-pCVQZ sp 

%output
 printlevel normal
 print[ p_basis ] 2
 print[ p_mos ] 1
 print[ p_overlap ] 1
 print[ p_hirshfeld ] 1
 end 

* xyz 0 1
C            -1.41525000     0.23022000     0.00000000
*
%pal
 nprocs 1
end
%MaxCore 2000
